26 26
22
3 3 23 13
3 4 14 16
5 3 7 6
6 3 0 23
7 3 0 6
8 3 6 23
9 3 0 3
10 3 0 20
11 3 0 0
12 3 14 23
14 3 12 10
15 3 11 0
16 3 10 20
17 3 9 3
19 3 4 13
3 4 4 16
4 4 22 16
5 4 17 16
7 4 7 16
8 4 4 9
4 11 0 9
14 4 12 6
